GLPSOL--GLPK LP/MIP Solver 5.0
Parameter(s) specified in the command line:
 --lp ../modeles/4_324.lp --log 4_324.log
Reading problem data from '../modeles/4_324.lp'...
1313 rows, 2600 columns, 9084 non-zeros
1296 integer variables, all of which are binary
3923 lines were read
GLPK Integer Optimizer 5.0
1313 rows, 2600 columns, 9084 non-zeros
1296 integer variables, all of which are binary
Preprocessing...
1288 constraint coefficient(s) were reduced
1313 rows, 2596 columns, 9080 non-zeros
1296 integer variables, all of which are binary
Scaling...
 A: min|aij| =  1.524e-04  max|aij| =  4.000e+00  ratio =  2.624e+04
GM: min|aij| =  7.857e-02  max|aij| =  1.273e+01  ratio =  1.620e+02
EQ: min|aij| =  6.173e-03  max|aij| =  1.000e+00  ratio =  1.620e+02
2N: min|aij| =  4.877e-03  max|aij| =  1.763e+00  ratio =  3.615e+02
Constructing initial basis...
Size of triangular part is 1313
Solving LP relaxation...
GLPK Simplex Optimizer 5.0
1313 rows, 2596 columns, 9080 non-zeros
      0: obj =   8.000000000e+00 inf =   1.950e+01 (9)
     83: obj =   4.298344226e-01 inf =   0.000e+00 (0)
*   297: obj =  -1.999847584e+00 inf =   1.966e-15 (0)
OPTIMAL LP SOLUTION FOUND
Integer optimization begins...
Long-step dual simplex will be used
+   297: mip =     not found yet >=              -inf        (1; 0)
+   850: >>>>>  -1.999847584e+00 >=  -1.999847584e+00 < 0.1% (552; 0)
+   850: mip =  -1.999847584e+00 >=     tree is empty   0.0% (0; 1103)
INTEGER OPTIMAL SOLUTION FOUND
Time used:   0.9 secs
Memory used: 3.8 Mb (4007410 bytes)
